/*********************************************
 * OPL 22.1.0.0 Data
 * Author: visha
 * Creation Date: 14 Jul 2022 at 10:18:50
 *********************************************/
//Index
branches={1,2,3,4};
warehouses= {1,2,3,4};

//Parameters
demand=[70,30,75,55];
supply=[35,50,80,65];
tcost=[[10,7,6,4],[8,8,5,7],[4,3,6,9],[7,5,4,3]];
 